param set_len = 50;
param target_sum = 9941099513;
param values := [1] 271654068 [2] 405861433 [3] 693843056 [4] 17555688 [5] 247819289 [6] 514999583 [7] 140464782 [8] 929346760 [9] 335109989 [10] 780181776 [11] 600160084 [12] 495763279 [13] 351084761 [14] 571987074 [15] 124751040 [16] 637687163 [17] 74393544 [18] 444820216 [19] 526862110 [20] 312815845 [21] 851680977 [22] 222047051 [23] 83197744 [24] 176942673 [25] 382884708 [26] 218738476 [27] 627467533 [28] 1012163485 [29] 275473196 [30] 769855157 [31] 151971152 [32] 532253669 [33] 1055711095 [34] 788985557 [35] 617616193 [36] 422073821 [37] 826200544 [38] 833903555 [39] 71454881 [40] 63607811 [41] 544147529 [42] 124931761 [43] 697651368 [44] 545566782 [45] 1022329856 [46] 99074421 [47] 954076080 [48] 16661760 [49] 379084871 [50] 463894 ;
